Minimize
 obj: + 124.9 x_user1_load0_hour0 + 131.4 x_user1_load0_hour1 
 + 134.1 x_user1_load0_hour2 + 148.6 x_user1_load0_hour3 
 + 154.9 x_user1_load0_hour4 + 159.4 x_user1_load0_hour5 
 + 160.1 x_user1_load0_hour6 + 170.6 x_user1_load0_hour7 
 + 182.9 x_user1_load0_hour8 + 189.4 x_user1_load0_hour9 
 + 200.1 x_user1_load0_hour10 + 207.6 x_user1_load0_hour11 
 + 215.9 x_user1_load0_hour12 + 222.4 x_user1_load0_hour13 
 + 128.8 x_user1_load1_hour0 + 126.4 x_user1_load1_hour1 
 + 136.2 x_user1_load1_hour2 + 147.6 x_user1_load1_hour3 
 + 158.8 x_user1_load1_hour4 + 156.4 x_user1_load1_hour5 
 + 158.2 x_user1_load1_hour6 + 173.6 x_user1_load1_hour7 
 + 180.8 x_user1_load1_hour8 + 190.4 x_user1_load1_hour9 
 + 200.2 x_user1_load1_hour10 + 207.6 x_user1_load1_hour11 
 + 214.8 x_user1_load1_hour12 + 226.4 x_user1_load1_hour13 
 + 224.2 x_user1_load1_hour14 + 143.2 x_user1_load2_hour0 
 + 156.9 x_user1_load2_hour1 + 155.8 x_user1_load2_hour2 
 + 174.6 x_user1_load2_hour3 + 178.2 x_user1_load2_hour4 
 + 187.9 x_user1_load2_hour5 + 188.8 x_user1_load2_hour6 
 + 197.6 x_user1_load2_hour7 + 215.2 x_user1_load2_hour8 
 + 220.9 x_user1_load2_hour9 + 233.8 x_user1_load2_hour10 
 + 242.6 x_user1_load2_hour11 + 253.2 x_user1_load2_hour12 
 + 256.9 x_user1_load2_hour13 + 82.7 x_user1_load3_hour0 
 + 88.7 x_user1_load3_hour1 + 89.8 x_user1_load3_hour2 
 + 99.8 x_user1_load3_hour3 + 102.7 x_user1_load3_hour4 
 + 106.7 x_user1_load3_hour5 + 107.8 x_user1_load3_hour6 
 + 113.8 x_user1_load3_hour7 + 122.7 x_user1_load3_hour8 
 + 126.7 x_user1_load3_hour9 + 133.8 x_user1_load3_hour10 
 + 138.8 x_user1_load3_hour11 + 144.7 x_user1_load3_hour12 
 + 147.7 x_user1_load3_hour13 + 82.2 x_user1_load4_hour0 
 + 87.1 x_user1_load4_hour1 + 85.3 x_user1_load4_hour2 
 + 96.4 x_user1_load4_hour3 + 102.2 x_user1_load4_hour4 
 + 107.1 x_user1_load4_hour5 + 103.3 x_user1_load4_hour6 
 + 110.4 x_user1_load4_hour7 + 120.2 x_user1_load4_hour8 
 + 123.1 x_user1_load4_hour9 + 131.3 x_user1_load4_hour10 
 + 136.4 x_user1_load4_hour11 + 141.2 x_user1_load4_hour12 
 + 147.1 x_user1_load4_hour13 + 152.3 x_user1_load4_hour14 
 + 246.5 x_user1_load5_hour0 + 266.9 x_user1_load5_hour1 
 + 260 x_user1_load5_hour2 + 280.1 x_user1_load5_hour3 
 + 299.5 x_user1_load5_hour4 + 311.9 x_user1_load5_hour5 
 + 319 x_user1_load5_hour6 + 335.1 x_user1_load5_hour7 
 + 356.5 x_user1_load5_hour8 + 366.9 x_user1_load5_hour9 
 + 389 x_user1_load5_hour10 + 392.1 x_user1_load5_hour11 
 + 82.2 x_user1_load6_hour0 + 87.1 x_user1_load6_hour1 
 + 85.3 x_user1_load6_hour2 + 96.4 x_user1_load6_hour3 
 + 102.2 x_user1_load6_hour4 + 107.1 x_user1_load6_hour5 
 + 103.3 x_user1_load6_hour6 + 110.4 x_user1_load6_hour7 
 + 120.2 x_user1_load6_hour8 + 123.1 x_user1_load6_hour9 
 + 131.3 x_user1_load6_hour10 + 136.4 x_user1_load6_hour11 
 + 141.2 x_user1_load6_hour12 + 147.1 x_user1_load6_hour13 
 + 152.3 x_user1_load6_hour14 + 86.6 x_user1_load7_hour0 
 + 83.7 x_user1_load7_hour1 + 91.9 x_user1_load7_hour2 
 + 98.8 x_user1_load7_hour3 + 106.6 x_user1_load7_hour4 
 + 103.7 x_user1_load7_hour5 + 105.9 x_user1_load7_hour6 
 + 116.8 x_user1_load7_hour7 + 120.6 x_user1_load7_hour8 
 + 127.7 x_user1_load7_hour9 + 133.9 x_user1_load7_hour10 
 + 138.8 x_user1_load7_hour11 + 143.6 x_user1_load7_hour12 
 + 151.7 x_user1_load7_hour13 + 148.9 x_user1_load7_hour14 

Subject To 
 load_load0_scheduled: + 1 x_user1_load0_hour0 + 1 x_user1_load0_hour1 
 + 1 x_user1_load0_hour2 + 1 x_user1_load0_hour3 + 1 x_user1_load0_hour4 
 + 1 x_user1_load0_hour5 + 1 x_user1_load0_hour6 + 1 x_user1_load0_hour7 
 + 1 x_user1_load0_hour8 + 1 x_user1_load0_hour9 + 1 x_user1_load0_hour10 
 + 1 x_user1_load0_hour11 + 1 x_user1_load0_hour12 + 1 x_user1_load0_hour13 
  = 1.0
 load_load1_scheduled: + 1 x_user1_load1_hour0 + 1 x_user1_load1_hour1 
 + 1 x_user1_load1_hour2 + 1 x_user1_load1_hour3 + 1 x_user1_load1_hour4 
 + 1 x_user1_load1_hour5 + 1 x_user1_load1_hour6 + 1 x_user1_load1_hour7 
 + 1 x_user1_load1_hour8 + 1 x_user1_load1_hour9 + 1 x_user1_load1_hour10 
 + 1 x_user1_load1_hour11 + 1 x_user1_load1_hour12 + 1 x_user1_load1_hour13 
 + 1 x_user1_load1_hour14  = 1.0
 load_load2_scheduled: + 1 x_user1_load2_hour0 + 1 x_user1_load2_hour1 
 + 1 x_user1_load2_hour2 + 1 x_user1_load2_hour3 + 1 x_user1_load2_hour4 
 + 1 x_user1_load2_hour5 + 1 x_user1_load2_hour6 + 1 x_user1_load2_hour7 
 + 1 x_user1_load2_hour8 + 1 x_user1_load2_hour9 + 1 x_user1_load2_hour10 
 + 1 x_user1_load2_hour11 + 1 x_user1_load2_hour12 + 1 x_user1_load2_hour13 
  = 1.0
 load_load3_scheduled: + 1 x_user1_load3_hour0 + 1 x_user1_load3_hour1 
 + 1 x_user1_load3_hour2 + 1 x_user1_load3_hour3 + 1 x_user1_load3_hour4 
 + 1 x_user1_load3_hour5 + 1 x_user1_load3_hour6 + 1 x_user1_load3_hour7 
 + 1 x_user1_load3_hour8 + 1 x_user1_load3_hour9 + 1 x_user1_load3_hour10 
 + 1 x_user1_load3_hour11 + 1 x_user1_load3_hour12 + 1 x_user1_load3_hour13 
  = 1.0
 load_load4_scheduled: + 1 x_user1_load4_hour0 + 1 x_user1_load4_hour1 
 + 1 x_user1_load4_hour2 + 1 x_user1_load4_hour3 + 1 x_user1_load4_hour4 
 + 1 x_user1_load4_hour5 + 1 x_user1_load4_hour6 + 1 x_user1_load4_hour7 
 + 1 x_user1_load4_hour8 + 1 x_user1_load4_hour9 + 1 x_user1_load4_hour10 
 + 1 x_user1_load4_hour11 + 1 x_user1_load4_hour12 + 1 x_user1_load4_hour13 
 + 1 x_user1_load4_hour14  = 1.0
 load_load5_scheduled: + 1 x_user1_load5_hour0 + 1 x_user1_load5_hour1 
 + 1 x_user1_load5_hour2 + 1 x_user1_load5_hour3 + 1 x_user1_load5_hour4 
 + 1 x_user1_load5_hour5 + 1 x_user1_load5_hour6 + 1 x_user1_load5_hour7 
 + 1 x_user1_load5_hour8 + 1 x_user1_load5_hour9 + 1 x_user1_load5_hour10 
 + 1 x_user1_load5_hour11  = 1.0
 load_load6_scheduled: + 1 x_user1_load6_hour0 + 1 x_user1_load6_hour1 
 + 1 x_user1_load6_hour2 + 1 x_user1_load6_hour3 + 1 x_user1_load6_hour4 
 + 1 x_user1_load6_hour5 + 1 x_user1_load6_hour6 + 1 x_user1_load6_hour7 
 + 1 x_user1_load6_hour8 + 1 x_user1_load6_hour9 + 1 x_user1_load6_hour10 
 + 1 x_user1_load6_hour11 + 1 x_user1_load6_hour12 + 1 x_user1_load6_hour13 
 + 1 x_user1_load6_hour14  = 1.0
 load_load7_scheduled: + 1 x_user1_load7_hour0 + 1 x_user1_load7_hour1 
 + 1 x_user1_load7_hour2 + 1 x_user1_load7_hour3 + 1 x_user1_load7_hour4 
 + 1 x_user1_load7_hour5 + 1 x_user1_load7_hour6 + 1 x_user1_load7_hour7 
 + 1 x_user1_load7_hour8 + 1 x_user1_load7_hour9 + 1 x_user1_load7_hour10 
 + 1 x_user1_load7_hour11 + 1 x_user1_load7_hour12 + 1 x_user1_load7_hour13 
 + 1 x_user1_load7_hour14  = 1.0
 MaxLoadConnection_user1_0: + 3 x_user1_load0_hour0 + 2 x_user1_load1_hour0 
 + 4 x_user1_load2_hour0 + 2 x_user1_load3_hour0 + 3 x_user1_load4_hour0 
 + 4 x_user1_load5_hour0 + 3 x_user1_load6_hour0 + 1 x_user1_load7_hour0 
  <= 4.0
 MaxLoadConnection_user1_1: + 3 x_user1_load0_hour1 + 2 x_user1_load0_hour0 
 + 2 x_user1_load1_hour1 + 4 x_user1_load1_hour0 + 4 x_user1_load2_hour1 
 + 1 x_user1_load2_hour0 + 2 x_user1_load3_hour1 + 1 x_user1_load3_hour0 
 + 3 x_user1_load4_hour1 + 1 x_user1_load4_hour0 + 4 x_user1_load5_hour1 
 + 1 x_user1_load5_hour0 + 3 x_user1_load6_hour1 + 1 x_user1_load6_hour0 
 + 1 x_user1_load7_hour1 + 3 x_user1_load7_hour0  <= 4.0
 MaxLoadConnection_user1_2: + 3 x_user1_load0_hour2 + 2 x_user1_load0_hour1 
 + 1 x_user1_load0_hour0 + 2 x_user1_load1_hour2 + 4 x_user1_load1_hour1 
 + 4 x_user1_load2_hour2 + 1 x_user1_load2_hour1 + 2 x_user1_load2_hour0 
 + 2 x_user1_load3_hour2 + 1 x_user1_load3_hour1 + 1 x_user1_load3_hour0 
 + 3 x_user1_load4_hour2 + 1 x_user1_load4_hour1 + 4 x_user1_load5_hour2 
 + 1 x_user1_load5_hour1 + 1 x_user1_load5_hour0 + 3 x_user1_load6_hour2 
 + 1 x_user1_load6_hour1 + 1 x_user1_load7_hour2 + 3 x_user1_load7_hour1 
  <= 4.0
 MaxLoadConnection_user1_3: + 3 x_user1_load0_hour3 + 2 x_user1_load0_hour2 
 + 1 x_user1_load0_hour1 + 2 x_user1_load1_hour3 + 4 x_user1_load1_hour2 
 + 4 x_user1_load2_hour3 + 1 x_user1_load2_hour2 + 2 x_user1_load2_hour1 
 + 2 x_user1_load3_hour3 + 1 x_user1_load3_hour2 + 1 x_user1_load3_hour1 
 + 3 x_user1_load4_hour3 + 1 x_user1_load4_hour2 + 4 x_user1_load5_hour3 
 + 1 x_user1_load5_hour2 + 1 x_user1_load5_hour1 + 1 x_user1_load5_hour0 
 + 3 x_user1_load6_hour3 + 1 x_user1_load6_hour2 + 1 x_user1_load7_hour3 
 + 3 x_user1_load7_hour2  <= 4.0
 MaxLoadConnection_user1_4: + 3 x_user1_load0_hour4 + 2 x_user1_load0_hour3 
 + 1 x_user1_load0_hour2 + 2 x_user1_load1_hour4 + 4 x_user1_load1_hour3 
 + 4 x_user1_load2_hour4 + 1 x_user1_load2_hour3 + 2 x_user1_load2_hour2 
 + 2 x_user1_load3_hour4 + 1 x_user1_load3_hour3 + 1 x_user1_load3_hour2 
 + 3 x_user1_load4_hour4 + 1 x_user1_load4_hour3 + 4 x_user1_load5_hour4 
 + 1 x_user1_load5_hour3 + 1 x_user1_load5_hour2 + 1 x_user1_load5_hour1 
 + 4 x_user1_load5_hour0 + 3 x_user1_load6_hour4 + 1 x_user1_load6_hour3 
 + 1 x_user1_load7_hour4 + 3 x_user1_load7_hour3  <= 4.0
 MaxLoadConnection_user1_5: + 3 x_user1_load0_hour5 + 2 x_user1_load0_hour4 
 + 1 x_user1_load0_hour3 + 2 x_user1_load1_hour5 + 4 x_user1_load1_hour4 
 + 4 x_user1_load2_hour5 + 1 x_user1_load2_hour4 + 2 x_user1_load2_hour3 
 + 2 x_user1_load3_hour5 + 1 x_user1_load3_hour4 + 1 x_user1_load3_hour3 
 + 3 x_user1_load4_hour5 + 1 x_user1_load4_hour4 + 4 x_user1_load5_hour5 
 + 1 x_user1_load5_hour4 + 1 x_user1_load5_hour3 + 1 x_user1_load5_hour2 
 + 4 x_user1_load5_hour1 + 3 x_user1_load6_hour5 + 1 x_user1_load6_hour4 
 + 1 x_user1_load7_hour5 + 3 x_user1_load7_hour4  <= 4.0
 MaxLoadConnection_user1_6: + 3 x_user1_load0_hour6 + 2 x_user1_load0_hour5 
 + 1 x_user1_load0_hour4 + 2 x_user1_load1_hour6 + 4 x_user1_load1_hour5 
 + 4 x_user1_load2_hour6 + 1 x_user1_load2_hour5 + 2 x_user1_load2_hour4 
 + 2 x_user1_load3_hour6 + 1 x_user1_load3_hour5 + 1 x_user1_load3_hour4 
 + 3 x_user1_load4_hour6 + 1 x_user1_load4_hour5 + 4 x_user1_load5_hour6 
 + 1 x_user1_load5_hour5 + 1 x_user1_load5_hour4 + 1 x_user1_load5_hour3 
 + 4 x_user1_load5_hour2 + 3 x_user1_load6_hour6 + 1 x_user1_load6_hour5 
 + 1 x_user1_load7_hour6 + 3 x_user1_load7_hour5  <= 4.0
 MaxLoadConnection_user1_7: + 3 x_user1_load0_hour7 + 2 x_user1_load0_hour6 
 + 1 x_user1_load0_hour5 + 2 x_user1_load1_hour7 + 4 x_user1_load1_hour6 
 + 4 x_user1_load2_hour7 + 1 x_user1_load2_hour6 + 2 x_user1_load2_hour5 
 + 2 x_user1_load3_hour7 + 1 x_user1_load3_hour6 + 1 x_user1_load3_hour5 
 + 3 x_user1_load4_hour7 + 1 x_user1_load4_hour6 + 4 x_user1_load5_hour7 
 + 1 x_user1_load5_hour6 + 1 x_user1_load5_hour5 + 1 x_user1_load5_hour4 
 + 4 x_user1_load5_hour3 + 3 x_user1_load6_hour7 + 1 x_user1_load6_hour6 
 + 1 x_user1_load7_hour7 + 3 x_user1_load7_hour6  <= 4.0
 MaxLoadConnection_user1_8: + 3 x_user1_load0_hour8 + 2 x_user1_load0_hour7 
 + 1 x_user1_load0_hour6 + 2 x_user1_load1_hour8 + 4 x_user1_load1_hour7 
 + 4 x_user1_load2_hour8 + 1 x_user1_load2_hour7 + 2 x_user1_load2_hour6 
 + 2 x_user1_load3_hour8 + 1 x_user1_load3_hour7 + 1 x_user1_load3_hour6 
 + 3 x_user1_load4_hour8 + 1 x_user1_load4_hour7 + 4 x_user1_load5_hour8 
 + 1 x_user1_load5_hour7 + 1 x_user1_load5_hour6 + 1 x_user1_load5_hour5 
 + 4 x_user1_load5_hour4 + 3 x_user1_load6_hour8 + 1 x_user1_load6_hour7 
 + 1 x_user1_load7_hour8 + 3 x_user1_load7_hour7  <= 4.0
 MaxLoadConnection_user1_9: + 3 x_user1_load0_hour9 + 2 x_user1_load0_hour8 
 + 1 x_user1_load0_hour7 + 2 x_user1_load1_hour9 + 4 x_user1_load1_hour8 
 + 4 x_user1_load2_hour9 + 1 x_user1_load2_hour8 + 2 x_user1_load2_hour7 
 + 2 x_user1_load3_hour9 + 1 x_user1_load3_hour8 + 1 x_user1_load3_hour7 
 + 3 x_user1_load4_hour9 + 1 x_user1_load4_hour8 + 4 x_user1_load5_hour9 
 + 1 x_user1_load5_hour8 + 1 x_user1_load5_hour7 + 1 x_user1_load5_hour6 
 + 4 x_user1_load5_hour5 + 3 x_user1_load6_hour9 + 1 x_user1_load6_hour8 
 + 1 x_user1_load7_hour9 + 3 x_user1_load7_hour8  <= 4.0
 MaxLoadConnection_user1_10: + 3 x_user1_load0_hour10 + 2 x_user1_load0_hour9 
 + 1 x_user1_load0_hour8 + 2 x_user1_load1_hour10 + 4 x_user1_load1_hour9 
 + 4 x_user1_load2_hour10 + 1 x_user1_load2_hour9 + 2 x_user1_load2_hour8 
 + 2 x_user1_load3_hour10 + 1 x_user1_load3_hour9 + 1 x_user1_load3_hour8 
 + 3 x_user1_load4_hour10 + 1 x_user1_load4_hour9 + 4 x_user1_load5_hour10 
 + 1 x_user1_load5_hour9 + 1 x_user1_load5_hour8 + 1 x_user1_load5_hour7 
 + 4 x_user1_load5_hour6 + 3 x_user1_load6_hour10 + 1 x_user1_load6_hour9 
 + 1 x_user1_load7_hour10 + 3 x_user1_load7_hour9  <= 4.0
 MaxLoadConnection_user1_11: + 3 x_user1_load0_hour11 + 2 x_user1_load0_hour10 
 + 1 x_user1_load0_hour9 + 2 x_user1_load1_hour11 + 4 x_user1_load1_hour10 
 + 4 x_user1_load2_hour11 + 1 x_user1_load2_hour10 + 2 x_user1_load2_hour9 
 + 2 x_user1_load3_hour11 + 1 x_user1_load3_hour10 + 1 x_user1_load3_hour9 
 + 3 x_user1_load4_hour11 + 1 x_user1_load4_hour10 + 4 x_user1_load5_hour11 
 + 1 x_user1_load5_hour10 + 1 x_user1_load5_hour9 + 1 x_user1_load5_hour8 
 + 4 x_user1_load5_hour7 + 3 x_user1_load6_hour11 + 1 x_user1_load6_hour10 
 + 1 x_user1_load7_hour11 + 3 x_user1_load7_hour10  <= 4.0
 MaxLoadConnection_user1_12: + 3 x_user1_load0_hour12 + 2 x_user1_load0_hour11 
 + 1 x_user1_load0_hour10 + 2 x_user1_load1_hour12 + 4 x_user1_load1_hour11 
 + 4 x_user1_load2_hour12 + 1 x_user1_load2_hour11 + 2 x_user1_load2_hour10 
 + 2 x_user1_load3_hour12 + 1 x_user1_load3_hour11 + 1 x_user1_load3_hour10 
 + 3 x_user1_load4_hour12 + 1 x_user1_load4_hour11 + 1 x_user1_load5_hour11 
 + 1 x_user1_load5_hour10 + 1 x_user1_load5_hour9 + 4 x_user1_load5_hour8 
 + 3 x_user1_load6_hour12 + 1 x_user1_load6_hour11 + 1 x_user1_load7_hour12 
 + 3 x_user1_load7_hour11  <= 4.0
 MaxLoadConnection_user1_13: + 3 x_user1_load0_hour13 + 2 x_user1_load0_hour12 
 + 1 x_user1_load0_hour11 + 2 x_user1_load1_hour13 + 4 x_user1_load1_hour12 
 + 4 x_user1_load2_hour13 + 1 x_user1_load2_hour12 + 2 x_user1_load2_hour11 
 + 2 x_user1_load3_hour13 + 1 x_user1_load3_hour12 + 1 x_user1_load3_hour11 
 + 3 x_user1_load4_hour13 + 1 x_user1_load4_hour12 + 1 x_user1_load5_hour11 
 + 1 x_user1_load5_hour10 + 4 x_user1_load5_hour9 + 3 x_user1_load6_hour13 
 + 1 x_user1_load6_hour12 + 1 x_user1_load7_hour13 + 3 x_user1_load7_hour12 
  <= 4.0
 MaxLoadConnection_user1_14: + 2 x_user1_load0_hour13 + 1 x_user1_load0_hour12 
 + 2 x_user1_load1_hour14 + 4 x_user1_load1_hour13 + 1 x_user1_load2_hour13 
 + 2 x_user1_load2_hour12 + 1 x_user1_load3_hour13 + 1 x_user1_load3_hour12 
 + 3 x_user1_load4_hour14 + 1 x_user1_load4_hour13 + 1 x_user1_load5_hour11 
 + 4 x_user1_load5_hour10 + 3 x_user1_load6_hour14 + 1 x_user1_load6_hour13 
 + 1 x_user1_load7_hour14 + 3 x_user1_load7_hour13  <= 4.0
 MaxLoadConnection_user1_15: + 1 x_user1_load0_hour13 + 4 x_user1_load1_hour14 
 + 2 x_user1_load2_hour13 + 1 x_user1_load3_hour13 + 1 x_user1_load4_hour14 
 + 4 x_user1_load5_hour11 + 1 x_user1_load6_hour14 + 3 x_user1_load7_hour14 
  <= 4.0

Bounds

Binary
 x_user1_load0_hour0 x_user1_load0_hour1 x_user1_load0_hour2
  x_user1_load0_hour3 x_user1_load0_hour4 x_user1_load0_hour5
  x_user1_load0_hour6 x_user1_load0_hour7 x_user1_load0_hour8
  x_user1_load0_hour9 x_user1_load0_hour10 x_user1_load0_hour11
  x_user1_load0_hour12 x_user1_load0_hour13 x_user1_load1_hour0
  x_user1_load1_hour1 x_user1_load1_hour2 x_user1_load1_hour3
  x_user1_load1_hour4 x_user1_load1_hour5 x_user1_load1_hour6
  x_user1_load1_hour7 x_user1_load1_hour8 x_user1_load1_hour9
  x_user1_load1_hour10 x_user1_load1_hour11 x_user1_load1_hour12
  x_user1_load1_hour13 x_user1_load1_hour14 x_user1_load2_hour0
  x_user1_load2_hour1 x_user1_load2_hour2 x_user1_load2_hour3
  x_user1_load2_hour4 x_user1_load2_hour5 x_user1_load2_hour6
  x_user1_load2_hour7 x_user1_load2_hour8 x_user1_load2_hour9
  x_user1_load2_hour10 x_user1_load2_hour11 x_user1_load2_hour12
  x_user1_load2_hour13 x_user1_load3_hour0 x_user1_load3_hour1
  x_user1_load3_hour2 x_user1_load3_hour3 x_user1_load3_hour4
  x_user1_load3_hour5 x_user1_load3_hour6 x_user1_load3_hour7
  x_user1_load3_hour8 x_user1_load3_hour9 x_user1_load3_hour10
  x_user1_load3_hour11 x_user1_load3_hour12 x_user1_load3_hour13
  x_user1_load4_hour0 x_user1_load4_hour1 x_user1_load4_hour2
  x_user1_load4_hour3 x_user1_load4_hour4 x_user1_load4_hour5
  x_user1_load4_hour6 x_user1_load4_hour7 x_user1_load4_hour8
  x_user1_load4_hour9 x_user1_load4_hour10 x_user1_load4_hour11
  x_user1_load4_hour12 x_user1_load4_hour13 x_user1_load4_hour14
  x_user1_load5_hour0 x_user1_load5_hour1 x_user1_load5_hour2
  x_user1_load5_hour3 x_user1_load5_hour4 x_user1_load5_hour5
  x_user1_load5_hour6 x_user1_load5_hour7 x_user1_load5_hour8
  x_user1_load5_hour9 x_user1_load5_hour10 x_user1_load5_hour11
  x_user1_load6_hour0 x_user1_load6_hour1 x_user1_load6_hour2
  x_user1_load6_hour3 x_user1_load6_hour4 x_user1_load6_hour5
  x_user1_load6_hour6 x_user1_load6_hour7 x_user1_load6_hour8
  x_user1_load6_hour9 x_user1_load6_hour10 x_user1_load6_hour11
  x_user1_load6_hour12 x_user1_load6_hour13 x_user1_load6_hour14
  x_user1_load7_hour0 x_user1_load7_hour1 x_user1_load7_hour2
  x_user1_load7_hour3 x_user1_load7_hour4 x_user1_load7_hour5
  x_user1_load7_hour6 x_user1_load7_hour7 x_user1_load7_hour8
  x_user1_load7_hour9 x_user1_load7_hour10 x_user1_load7_hour11
  x_user1_load7_hour12 x_user1_load7_hour13 x_user1_load7_hour14
General

End